NAME : 30_2_10.44439.tour
COMMENT : Cost = 0_44439
COMMENT : Found by LKH [Keld Helsgaun] Thu Sep 14 11:07:26 2017
TYPE : TOUR
DIMENSION : 32
TOUR_SECTION
1
27
19
21
26
22
20
24
25
23
29
28
32
11
13
12
14
18
6
7
17
4
5
30
31
16
15
8
10
9
2
3
-1
EOF
